16 52 41
46 32 39
50 56 37
30 58 27
35 62 63
36 63 69
4 20 26
41 10 17
12 31 32
47 25 32
17 27 23
25 7 38
33 46 10
13 5 25
37 32 22
9 52 33
29 58 48
20 57 58
48 25 55
5 40 30
18 17 33
49 48 28
38 45 35
8 31 62
6 21 47
15 36 16
11 42 41
34 61 33
19 13 13
7 17 63
26 27 68
24 8 52
40 5 6
1 37 52
22 42 57
51 30 40
21 62 42
27 30 48
32 38 46
10 51 21
44 30 15
2 49 49
28 43 67
23 16 57
31 37 69
3 52 64
43 5 64
14 12 42
42 21 10
39 59 15
45 39 10
16 52 41
